100 89291

 623 961
153 689
845 365
196 939
933 663
251 845
734 766
285 380
318 479
311 187
748 293
557 779
883 894
308 725
692 466
753 87
152 57
401 375
483 464
356 610
323 7
687 990
216 364
710 849
936 535
566 131
612 798
69 710
865 528
286 515
616 88
980 656
596 912
725 94
446 264
61 903
798 285
35 654
701 535
23 597
863 416
158 300
515 49
598 745
458 747
341 671
468 644
312 244
439 23
359 809
567 492
238 307
989 102
501 63
195 349
478 805
867 919
22 897
680 921
548 908
170 528
818 220
369 799
294 214
829 268
639 234
899 515
630 322
741 155
837 454
55 874
777 571
614 879
70 196
509 167
83 576
736 464
547 661
954 795
184 752
607 943
212 399
615 207
723 551
723 111
816 289
854 208
78 397
344 112
688 32
499 657
191 611
553 709
408 661
391 115
810 292
408 130
27 843
59 747
857 202
